solution status: time limit reached
objective value:                                 -116
x0                                                  1 	(obj:-1)
x9                                                  1 	(obj:-1)
x34                                                 1 	(obj:-1)
x43                                                 1 	(obj:-1)
x52                                                 1 	(obj:-1)
x56                                                 1 	(obj:-1)
x66                                                 1 	(obj:-1)
x78                                                 1 	(obj:-1)
x83                                                 1 	(obj:-1)
x91                                                 1 	(obj:-1)
x102                                                1 	(obj:-1)
x105                                                1 	(obj:-1)
x112                                                1 	(obj:-1)
x121                                                1 	(obj:-1)
x130                                                1 	(obj:-1)
x139                                                1 	(obj:-1)
x146                                                1 	(obj:-1)
x158                                                1 	(obj:-1)
x165                                                1 	(obj:-1)
x174                                                1 	(obj:-1)
x180                                                1 	(obj:-1)
x187                                                1 	(obj:-1)
x195                                                1 	(obj:-1)
x200                                                1 	(obj:-1)
x218                                                1 	(obj:-1)
x227                                                1 	(obj:-1)
x234                                                1 	(obj:-1)
x254                                                1 	(obj:-1)
x268                                                1 	(obj:-1)
x274                                                1 	(obj:-1)
x281                                                1 	(obj:-1)
x289                                                1 	(obj:-1)
x305                                                1 	(obj:-1)
x326                                                1 	(obj:-1)
x331                                                1 	(obj:-1)
x337                                                1 	(obj:-1)
x347                                                1 	(obj:-1)
x358                                                1 	(obj:-1)
x362                                                1 	(obj:-1)
x370                                                1 	(obj:-1)
x376                                                1 	(obj:-1)
x390                                                1 	(obj:-1)
x414                                                1 	(obj:-1)
x417                                                1 	(obj:-1)
x430                                                1 	(obj:-1)
x434                                                1 	(obj:-1)
x451                                                1 	(obj:-1)
x460                                                1 	(obj:-1)
x466                                                1 	(obj:-1)
x474                                                1 	(obj:-1)
x484                                                1 	(obj:-1)
x492                                                1 	(obj:-1)
x515                                                1 	(obj:-1)
x523                                                1 	(obj:-1)
x536                                                1 	(obj:-1)
x549                                                1 	(obj:-1)
x555                                                1 	(obj:-1)
x567                                                1 	(obj:-1)
x574                                                1 	(obj:-1)
x577                                                1 	(obj:-1)
x587                                                1 	(obj:-1)
x595                                                1 	(obj:-1)
x602                                                1 	(obj:-1)
x614                                                1 	(obj:-1)
x618                                                1 	(obj:-1)
x626                                                1 	(obj:-1)
x636                                                1 	(obj:-1)
x641                                                1 	(obj:-1)
x656                                                1 	(obj:-1)
x669                                                1 	(obj:-1)
x672                                                1 	(obj:-1)
x686                                                1 	(obj:-1)
x690                                                1 	(obj:-1)
x700                                                1 	(obj:-1)
x710                                                1 	(obj:-1)
x719                                                1 	(obj:-1)
x723                                                1 	(obj:-1)
x752                                                1 	(obj:-1)
x764                                                1 	(obj:-1)
x769                                                1 	(obj:-1)
x778                                                1 	(obj:-1)
x787                                                1 	(obj:-1)
x805                                                1 	(obj:-1)
x808                                                1 	(obj:-1)
x822                                                1 	(obj:-1)
x828                                                1 	(obj:-1)
x834                                                1 	(obj:-1)
x846                                                1 	(obj:-1)
x851                                                1 	(obj:-1)
x856                                                1 	(obj:-1)
x864                                                1 	(obj:-1)
x878                                                1 	(obj:-1)
x881                                                1 	(obj:-1)
x888                                                1 	(obj:-1)
x901                                                1 	(obj:-1)
x904                                                1 	(obj:-1)
x913                                                1 	(obj:-1)
x923                                                1 	(obj:-1)
x929                                                1 	(obj:-1)
x944                                                1 	(obj:-1)
x952                                                1 	(obj:-1)
x962                                                1 	(obj:-1)
x969                                                1 	(obj:-1)
x982                                                1 	(obj:-1)
x984                                                1 	(obj:-1)
x1005                                               1 	(obj:-1)
x1023                                               1 	(obj:-1)
x1029                                               1 	(obj:-1)
x1033                                               1 	(obj:-1)
x1040                                               1 	(obj:-1)
x1055                                               1 	(obj:-1)
x1056                                               1 	(obj:-1)
x1066                                               1 	(obj:-1)
x1083                                               1 	(obj:-1)
x1099                                               1 	(obj:-1)
x1110                                               1 	(obj:-1)
x1116                                               1 	(obj:0)
x1121                                               1 	(obj:0)
x1132                                               1 	(obj:0)
x1140                                               1 	(obj:0)
x1146                                               1 	(obj:0)
x1158                                               1 	(obj:0)
x1165                                               1 	(obj:0)
x1172                                               1 	(obj:0)
x1177                                               1 	(obj:0)
x1188                                               1 	(obj:0)
x1194                                               1 	(obj:0)
x1201                                               1 	(obj:0)
x1214                                               1 	(obj:0)
x1222                                               1 	(obj:0)
x1227                                               1 	(obj:0)
x1235                                               1 	(obj:0)
x1246                                               1 	(obj:0)
x1254                                               1 	(obj:0)
x1258                                               1 	(obj:0)
x1265                                               1 	(obj:0)
x1275                                               1 	(obj:0)
x1280                                               1 	(obj:0)
x1294                                               1 	(obj:0)
x1302                                               1 	(obj:0)
x1306                                               1 	(obj:0)
x1318                                               1 	(obj:0)
x1321                                               1 	(obj:0)
x1333                                               1 	(obj:0)
x1340                                               1 	(obj:0)
x1351                                               1 	(obj:0)
x1352                                               1 	(obj:0)
x1360                                               1 	(obj:0)
x1372                                               1 	(obj:0)
x1380                                               1 	(obj:0)
x1385                                               1 	(obj:0)
x1395                                               1 	(obj:0)
x1403                                               1 	(obj:0)
x1411                                               1 	(obj:0)
x1417                                               1 	(obj:0)
x1424                                               1 	(obj:0)
x1432                                               1 	(obj:0)
x1443                                               1 	(obj:0)
x1451                                               1 	(obj:0)
x1456                                               1 	(obj:0)
x1466                                               1 	(obj:0)
x1479                                               1 	(obj:0)
x1482                                               1 	(obj:0)
x1491                                               1 	(obj:0)
x1501                                               1 	(obj:0)
x1506                                               1 	(obj:0)
x1514                                               1 	(obj:0)
x1523                                               1 	(obj:0)
x1530                                               1 	(obj:0)
x1537                                               1 	(obj:0)
x1547                                               1 	(obj:0)
x1555                                               1 	(obj:0)
x1564                                               1 	(obj:0)
x1569                                               1 	(obj:0)
x1582                                               1 	(obj:0)
x1586                                               1 	(obj:0)
x1593                                               1 	(obj:0)
x1600                                               1 	(obj:0)
x1610                                               1 	(obj:0)
x1618                                               1 	(obj:0)
x1624                                               1 	(obj:0)
x1633                                               1 	(obj:0)
x1643                                               1 	(obj:0)
x1654                                               1 	(obj:0)
x1658                                               1 	(obj:0)
x1664                                               1 	(obj:0)
x1677                                               1 	(obj:0)
x1682                                               1 	(obj:0)
x1691                                               1 	(obj:0)
x1697                                               1 	(obj:0)
x1707                                               1 	(obj:0)
x1714                                               1 	(obj:0)
x1726                                               1 	(obj:0)
x1734                                               1 	(obj:0)
x1738                                               1 	(obj:0)
x1747                                               1 	(obj:0)
x1752                                               1 	(obj:0)
x1760                                               1 	(obj:0)
x1773                                               1 	(obj:0)
x1779                                               1 	(obj:0)
x1787                                               1 	(obj:0)
x1798                                               1 	(obj:0)
x1802                                               1 	(obj:0)
x1808                                               1 	(obj:0)
x1822                                               1 	(obj:0)
x1824                                               1 	(obj:0)
x1832                                               1 	(obj:0)
x1845                                               1 	(obj:0)
x1849                                               1 	(obj:0)
x1859                                               1 	(obj:0)
